#######################################
### Exact MIP solver for the HHCRSP ###
#######################################
-- Instance file: new-instances/HHCRSP_200_40_84_0.8_C_C.txt
-- Max threads: 4
-- Time limit: 999999 seconds
-- Use initial solution: No
Trivial flow violations prevented generating 357968 variables.
Version identifier: 20.1.0.0 | 2020-11-10 | 9bedb6d68
CPXPARAM_Threads                                 4
CPXPARAM_TimeLimit                               999999
Parallel mode: deterministic, using up to 4 threads for concurrent optimization:
 * Starting dual Simplex on 1 thread...
 * Starting Barrier on 3 threads...
Tried aggregator 1 time.
LP Presolve eliminated 21432 rows and 5064 columns.
Reduced LP has 394902 rows, 375495 columns, and 6937664 nonzeros.
Presolve time = 13.03 sec. (1598.28 ticks)
Symmetry aggregator did 597999 additional substitutions.

Iteration log . . .
Iteration:     1   Dual objective     =             0.000000
Iteration:   930   Dual objective     =           267.333333

Dual crossover.
  Dual:  Fixing 1084 variables.
     1083 DMoves:  Infeasibility  8.72801833e-13  Objective  2.71666667e+02
        0 DMoves:  Infeasibility  4.37927474e-13  Objective  2.71666667e+02
  Dual:  Pushed 47, exchanged 1037.
  Primal:  Fixing 588 variables.
      587 PMoves:  Infeasibility  0.00000000e+00  Objective  2.71666667e+02
        0 PMoves:  Infeasibility  4.16333634e-17  Objective  2.71666667e+02
  Primal:  Pushed 491, exchanged 97.

Dual simplex solved model.


Solution status from MIP model:
-- Processing time: 23.23 sec.
-- Memory used: 442.595 MB
-- Best bound: inf
-- Obj value: 271.667
-- Gap: inf%
-- Total distance: 815
-- Total tardiness: 0
-- Largest tardiness: 0
